NAME : portcgen-18-3
COMMENT : portcgen N=18, seed=3
TYPE : TSP
DIMENSION : 18
EDGE_WEIGHT_TYPE : EUC_2D
NODE_COORD_SECTION
1 303918 139970
2 -104753 -250484
3 -155691 354648
4 -125026 386460
5 -245869 22542
6 121483 -290514
7 -30620 -318165
8 215349 245817
9 -200934 -320581
10 84888 -216635
11 -202325 -34081
12 189501 349765
13 78226 -28940
14 -333140 -369467
15 -63618 138176
16 128606 82837
17 600523 412804
18 26029 71513
